args: ../partial/bp/M9.cnf cubes/M9.cubes 100 50 1
iteration: 0
running icadical
lim: 100
refuted: 71325, progress: 71325/148624

iteration: 1
running icadical
lim: 100
refuted: 77299, progress: 148624/148624

c --- [ banner ] -------------------------------------------------------------
c 
c CaDiCaL Radically Simplified CDCL SAT Solver
c Copyright (c) 2016-2019 Armin Biere, JKU Linz
c 
c Version 1.2.1 92d72896c49b30ad2d50c8e1061ca0681cd23e60
c g++ (GCC) 4.8.5 20150623 (Red Hat 4.8.5-39) -Wall -Wextra -O3 -DNDEBUG -std=c++0x
c Thu Jan 30 22:37:32 EST 2020 Linux lov6.int.autonlab.org 3.10.0-1062.4.1.el7.x86_64 x86_64
c 
c --- [ parsing input ] ------------------------------------------------------
c 
c reading DIMACS file from '<stdin>' (use '-h' for a list of common options)
c found 'p cnf 3064 90219' header
c parsed 238843 clauses in 0.49 seconds process time
c disconnecting from '<stdin>'
c after reading 3747844 bytes 3.6 MB
c 
c --- [ options ] ------------------------------------------------------------
c 
c   --report=false                 (different from default 'true')
c 
c --- [ solving ] ------------------------------------------------------------
c 
c 
c --- [ result ] -------------------------------------------------------------
c 
s UNSATISFIABLE
c 
c --- [ run-time profiling ] -------------------------------------------------
c 
c process time taken by individual solving procedures
c (percentage relative to process time for solving)
c 
c         0.00   91.33% search
c         0.00   55.98% lucky
c         0.00   33.80% unstable
c         0.00    0.00% simplify
c   =================================
c         0.00    0.12% solve
c 
c last line shows process time for solving
c (percentage relative to total process time)
c 
c --- [ statistics ] ---------------------------------------------------------
c 
c conflicts:                     3      5199.31    per second
c decisions:                     2      3466.20    per second
c fixed:                      1537        50.16 %  of all variables
c learned:                       2        66.67 %  per conflict
c minimized:                     0         0.00 %  learned literals
c propagations:                 90         0.16 M  per second
c 
c seconds are measured in process time for solving
c 
c --- [ resources ] ----------------------------------------------------------
c 
c total process time since initialization:         0.49    seconds
c total real time since initialization:            0.69    seconds
c maximum resident set size of process:           21.69    MB
c 
c --- [ shutting down ] ------------------------------------------------------
c 
c exit 20

real	38m39.932s
user	38m39.644s
sys	0m11.761s
